125
[25,26,27,28,29,30,31,32,33,34,35,36,37,38,39,40,41,42,43,44,45,46,47,48,49,50,51,52,53,54,55,56,57,58,59,60,61,62,63,64,65,66,67,68,69,71,72,73,74,75,76,77,78,79,80,81,82,83,84,85,86,87]
[9,7,8,7,8,3,8,11,7,6,5,8,4,6,3,5,10,6,9,9,7,9,5,6,8,6,4,8,5,6,6,8,4,13,10,8,6,3,5,4,5,12,5,6,4,8,2,8,6,9,8,3,4,6,4,6,9,1,5,5,6,8]
